n=150;
k_min=3;
k_max=3;
M=[| 0.06, 1.0, 0.0
 | 0.06, 0.94, 0.0
 | 0.06, 1.0, 0.0
 | 0.06, 1.0, 0.0
 | 0.06, 1.0, 0.0
 | 0.06, 1.0, 0.0
 | 0.06, 1.0, 0.0
 | 0.06, 0.94, 0.0
 | 0.06, 1.0, 0.0
 | 0.06, 0.92, 0.0
 | 0.06, 0.96, 0.0
 | 0.06, 1.0, 0.0
 | 0.06, 1, 0.0
 | 0.06, 1.0, 0.0
 | 0.06, 0.98, 0.0
 | 0.06, 0.98, 0.0
 | 0.06, 1.0, 0.0
 | 0.06, 1.0, 0.0
 | 0.06, 0.98, 0.0
 | 0.06, 0.92, 0.0
 | 0.06, 0.92, 0.0
 | 0.06, 0.88, 0.0
 | 0.06, 0.96, 0.0
 | 0.06, 1.0, 0.0
 | 0.06, 1.0, 0.0
 | 0.06, 0.92, 0.0
 | 0.06, 1.0, 0.0
 | 0.06, 0.96, 0.0
 | 0.0, 1.0, 0.0
 | 0.06, 1, 0.0
 | 0.06, 0.94, 0.0
 | 0.06, 0.92, 0.0
 | 0.06, 1.0, 0.0
 | 0.06, 0.98, 0.0
 | 0.06, 0.92, 0.0
 | 0.0, 0.88, 0.0
 | 0.06, 0.9, 0.0
 | 0.06, 0.92, 0.0
 | 0.06, 1.0, 0.0
 | 0.06, 1.0, 0.0
 | 0.06, 1.0, 0.0
 | 0.06, 1.0, 0.0
 | 0.06, 1.0, 0.0
 | 0.06, 1.0, 0.0
 | 0.06, 0.92, 0.0
 | 0.06, 0.98, 0.0
 | 0.06, 0.92, 0.0
 | 0.06, 1.0, 0.0
 | 0.06, 1, 0.0
 | 0.06, 1.0, 0.0
 | 1.0, 0.0, 0.06
 | 0.98, 0.0, 0.06
 | 0.94, 0.0, 0.12
 | 0.98, 0.0, 0.06
 | 1.0, 0.0, 0.06
 | 1.0, 0.0, 0.06
 | 0.98, 0.0, 0.06
 | 1.0, 0.06, 0.0
 | 1.0, 0.0, 0.06
 | 0.94, 0.0, 0.06
 | 0.94, 0.0, 0.06
 | 0.96, 0.0, 0.06
 | 0.96, 0.0, 0.06
 | 1.0, 0.0, 0.06
 | 0.98, 0.0, 0.06
 | 1.0, 0.0, 0.06
 | 1, 0.0, 0.06
 | 0.94, 0.0, 0.06
 | 1.0, 0.0, 0.06
 | 0.98, 0.0, 0.06
 | 0.98, 0.0, 0.06
 | 0.92, 0.0, 0.06
 | 0.9, 0.0, 0.06
 | 1, 0.0, 0.06
 | 0.96, 0.0, 0.06
 | 1.0, 0.0, 0.06
 | 1.0, 0.0, 0.06
 | 0.94, 0.0, 0.12
 | 0.9, 0.0, 0.06
 | 1.0, 0.0, 0.06
 | 1.0, 0.0, 0.06
 | 1.0, 0.0, 0.06
 | 0.94, 0.0, 0.06
 | 0.98, 0.0, 0.06
 | 1, 0.0, 0.06
 | 0.96, 0.0, 0.06
 | 1.0, 0.0, 0.06
 | 0.94, 0.0, 0.06
 | 1.0, 0.0, 0.06
 | 1.0, 0.0, 0.06
 | 1.0, 0.0, 0.06
 | 0.98, 0.0, 0.06
 | 0.94, 0.0, 0.06
 | 1.0, 0.06, 0.0
 | 1.0, 0.0, 0.06
 | 0.98, 0.0, 0.06
 | 1, 0.0, 0.06
 | 0.96, 0.0, 0.06
 | 1.0, 0.06, 0.0
 | 1.0, 0.0, 0.06
 | 0.98, 0.0, 0.4
 | 1.0, 0.0, 0.06
 | 0.38, 0.0, 1.0
 | 0.98, 0.0, 0.36
 | 1.0, 0.0, 0.38
 | 0.22, 0.0, 1.0
 | 0.96, 0.0, 0.06
 | 0.22, 0.0, 0.96
 | 0.98, 0.0, 0.4
 | 0.24, 0.0, 0.94
 | 1.0, 0.0, 0.26
 | 0.62, 0.0, 0.16
 | 1.0, 0.0, 0.38
 | 1.0, 0.0, 0.06
 | 0.7, 0.0, 0.06
 | 0.98, 0.0, 0.36
 | 0.98, 0.0, 0.36
 | 0.22, 0.0, 1.0
 | 0.22, 0.0, 1.0
 | 0.9, 0.0, 0.06
 | 0.98, 0.0, 0.4
 | 1.0, 0.0, 0.06
 | 0.22, 0.0, 1.0
 | 0.96, 0.0, 0.06
 | 0.98, 0.0, 1
 | 0.24, 0.0, 0.92
 | 0.94, 0.0, 0.06
 | 1.0, 0.0, 0.06
 | 0.98, 0.0, 0.36
 | 0.38, 0.0, 1.0
 | 0.22, 0.0, 0.96
 | 0.22, 0.0, 1.0
 | 0.98, 0.0, 0.36
 | 0.94, 0.0, 0.06
 | 0.92, 0.0, 0.12
 | 0.22, 0.0, 0.98
 | 1.0, 0.0, 0.38
 | 0.98, 0.0, 0.36
 | 0.98, 0.0, 0.06
 | 1.0, 0.0, 0.38
 | 0.98, 0.0, 0.4
 | 1.0, 0.0, 0.38
 | 1.0, 0.0, 0.06
 | 0.98, 0.0, 0.4
 | 0.98, 0.0, 0.4
 | 1.0, 0.0, 0.38
 | 0.98, 0.0, 0.06
 | 1.0, 0.0, 0.26
 | 0.98, 0.0, 0.36
 | 1.0, 0.0, 0.06 |];
 P=[2, 2, 2, 2, 2, 2, 2, 2, 2, 2, 2, 2, 2, 2, 2, 2, 2, 2, 2, 2, 2, 2, 2, 2, 2, 2, 2, 2, 2, 2, 2, 2, 2, 2, 2, 2, 2, 2, 2, 2, 2, 2, 2, 2, 2, 2, 2, 2, 2, 2, 1, 1, 1, 1, 1, 1, 1, 1, 1, 1, 1, 1, 1, 1, 1, 1, 1, 1, 1, 1, 1, 1, 1, 1, 1, 1, 1, 1, 1, 1, 1, 1, 1, 1, 1, 1, 1, 1, 1, 1, 1, 1, 1, 1, 1, 1, 1, 1, 1, 1, 1, 1, 3, 1, 1, 3, 1, 3, 1, 3, 1, 1, 1, 1, 1, 1, 1, 3, 3, 1, 1, 1, 3, 1, 1, 3, 1, 1, 1, 3, 3, 3, 1, 1, 1, 3, 1, 1, 1, 1, 1, 1, 1, 1, 1, 1, 1, 1, 1, 1 ];